
Gurobi 11.0.3 (linux64) logging started Fri Nov 22 08:17:47 2024

Set parameter LogFile to value "/home/yihong/Coding/OR_SUC/SUC_results_bigM100000_thread4/case24_ieee_rts_theta0.1_epsilon0.05_gurobi_seed1030000_num_gen100_N_WDR100_load_scaling_factor1_exact_T20quadra_cost.txt"
Set parameter TimeLimit to value 3600
Gurobi Optimizer version 11.0.3 build v11.0.3rc0 (linux64 - "Ubuntu 20.04.6 LTS")

CPU model: AMD EPYC 7532 32-Core Processor, instruction set [SSE2|AVX|AVX2]
Thread count: 64 physical cores, 128 logical processors, using up to 4 threads

Optimize a model with 47983 rows, 25001 columns and 1104482 nonzeros
Model fingerprint: 0xe51282d3
Model has 2000 quadratic constraints
Variable types: 22901 continuous, 2100 integer (2100 binary)
Coefficient statistics:
  Matrix range     [3e-04, 1e+05]
  QMatrix range    [2e-03, 8e-03]
  QLMatrix range   [5e-01, 6e+01]
  Objective range  [1e+00, 1e+00]
  Bounds range     [1e+00, 1e+00]
  RHS range        [1e+00, 1e+05]
Presolve removed 39181 rows and 10610 columns
Presolve time: 0.32s
Presolved: 8802 rows, 14391 columns, 49122 nonzeros
Presolved model has 2000 quadratic constraint(s)
Variable types: 12305 continuous, 2086 integer (2086 binary)

Root relaxation: objective 2.516740e+04, 7122 iterations, 0.21 seconds (0.32 work units)

    Nodes    |    Current Node    |     Objective Bounds      |     Work
 Expl Unexpl |  Obj  Depth IntInf | Incumbent    BestBd   Gap | It/Node Time

     0     0 25167.4034    0    8          - 25167.4034      -     -    0s
     0     0 308239.037    0  559          - 308239.037      -     -    1s
     0     0 308837.772    0  579          - 308837.772      -     -    1s
     0     0 507432.916    0  524          - 507432.916      -     -    1s
     0     0 507572.727    0  435          - 507572.727      -     -    1s
     0     0 508148.964    0  394          - 508148.964      -     -    1s
     0     0 508210.388    0  374          - 508210.388      -     -    1s
     0     0 508465.502    0  369          - 508465.502      -     -    1s
     0     0 508481.155    0  369          - 508481.155      -     -    1s
     0     2 508481.155    0  369          - 508481.155      -     -    2s
H  462   247                    509335.46378 508869.021  0.09%  24.2    3s
*  462   247             148    509335.46378 508869.021  0.09%  24.2    3s

Cutting planes:
  Gomory: 3
  Implied bound: 311
  MIR: 99
  Flow cover: 121

Explored 504 nodes (31657 simplex iterations) in 4.15 seconds (5.28 work units)
Thread count was 4 (of 128 available processors)

Solution count 2: 509335 509335 

Optimal solution found (tolerance 1.00e-03)
Warning: max constraint violation (2.8538e-07) exceeds tolerance
Best objective 5.093354637849e+05, best bound 5.089354311128e+05, gap 0.0785%
